c fileName = steiner3_009_12.cnfU
c   solv_bina_sat_exh(instanceDef)
c numSatisfied... = 172 
c          coord value
c   1: 000111011     5
c   2: 000111101     5
c   3: 000111110     5
c   4: 001001111     5
c   5: 001011101     5
c  ---                
c 168: 111110111     8
c 169: 111111011     8
c 170: 111111101     8
c 171: 111111110     8
c 172: 111111111     9
c > 
p cnf  9 12
1 2 6    0
1 3 5    0
1 4 7    0
1 8 9    0
2 3 4    0
2 5 8    0
2 7 9    0
3 6 9    0
3 7 8    0
4 5 9    0
4 6 8    0
5 6 7    0


  